Version identifier: 12.10.0.0 | 2019-11-26 | 843d4de
CPXPARAM_WorkMem                                 28672
Tried aggregator 2 times.
Aggregator did 75 substitutions.
Reduced MIP has 319 rows, 360 columns, and 1504 nonzeros.
Reduced MIP has 360 binaries, 0 generals, 0 SOSs, and 0 indicators.
Presolve time = 0,00 sec. (1,46 ticks)
Found incumbent of value 1612,000000 after 0,01 sec. (2,25 ticks)
Probing time = 0,00 sec. (0,73 ticks)
Tried aggregator 1 time.
Detecting symmetries...
MIP Presolve eliminated 76 rows and 0 columns.
MIP Presolve added 152 rows and 0 columns.
Reduced MIP has 395 rows, 360 columns, and 1580 nonzeros.
Reduced MIP has 360 binaries, 0 generals, 0 SOSs, and 0 indicators.
Presolve time = 0,00 sec. (2,02 ticks)
Probing time = 0,00 sec. (0,71 ticks)
Clique table members: 1099.
MIP emphasis: balance optimality and feasibility.
MIP search method: dynamic search.
Parallel mode: deterministic, using up to 16 threads.
Root relaxation solution time = 0,01 sec. (2,04 ticks)

        Nodes                                         Cuts/
   Node  Left     Objective  IInf  Best Integer    Best Bound    ItCnt     Gap

*     0+    0                         1612,0000        0,0000           100,00%
*     0+    0                          947,0000        0,0000           100,00%
      0     0      403,0000   267      947,0000      403,0000      158   57,44%
      0     0      407,4787   267      947,0000     Cuts: 123      298   56,97%
      0     0      413,9234   267      947,0000     Cuts: 198      340   56,29%
      0     0      415,0208   267      947,0000     Cuts: 198      362   56,18%
      0     0      416,1721   267      947,0000      Cuts: 13      385   56,05%
      0     0      416,7067   267      947,0000     Cuts: 198      401   56,00%
      0     0      474,0418   267      947,0000     Cuts: 198      625   49,94%
      0     0      479,1703   267      947,0000     Cuts: 198      704   49,40%
*     0+    0                          846,0000      479,1703            43,36%
      0     0      480,3402   267      846,0000      Cuts: 98      737   43,19%
      0     0      480,3699   267      846,0000       Cuts: 6      742   43,19%
      0     0      480,4959   267      846,0000   ZeroHalf: 3      755   43,19%
      0     0      480,9859   267      846,0000   ZeroHalf: 3      767   43,15%
      0     0      481,0175   267      846,0000       Cuts: 3      771   43,14%
      0     2      481,0175   337      846,0000      485,2444      771   42,64%
Elapsed time = 0,23 sec. (155,86 ticks, tree = 0,02 MB, solutions = 3)
   2267  1227      789,7863   124      846,0000      583,6826    74931   31,01%
   4480  2398      824,5765   209      846,0000      745,7960   181009   11,84%

Performing restart 1

Repeating presolve.
Tried aggregator 2 times.
MIP Presolve eliminated 30 rows and 22 columns.
MIP Presolve added 6 rows and 0 columns.
MIP Presolve modified 45 coefficients.
Aggregator did 6 substitutions.
Reduced MIP has 365 rows, 332 columns, and 1410 nonzeros.
Reduced MIP has 332 binaries, 0 generals, 0 SOSs, and 0 indicators.
Presolve time = 0,00 sec. (1,97 ticks)
Tried aggregator 1 time.
Reduced MIP has 365 rows, 332 columns, and 1410 nonzeros.
Reduced MIP has 332 binaries, 0 generals, 0 SOSs, and 0 indicators.
Presolve time = 0,00 sec. (1,16 ticks)
Represolve time = 0,01 sec. (11,40 ticks)
   6648     0      491,6465   329      846,0000      Cuts: 11   291084    8,52%
   6648     0      497,3957   329      846,0000      Cuts: 13   291162    8,52%
   6648     0      502,8972   329      846,0000      Cuts: 11   291229    8,52%
   6648     0      505,2502   329      846,0000      Cuts: 10   291279    8,52%
   6648     0      506,3781   329      846,0000      Cuts: 11   291338    8,52%
   6648     0      507,9840   329      846,0000       Cuts: 9   291414    8,52%
   6648     2      507,9840   327      846,0000      773,9211   291414    8,52%
   6654     6      572,5864   298      846,0000      773,9211   292551    8,52%
*  7671+  624                          837,0000      773,9211             7,54%
   7790   639      838,7587   124      837,0000      773,9211   331895    7,54%
   9038  1544      752,1121   159      837,0000      773,9211   385113    7,54%
  10928  2877      769,9383   166      837,0000      773,9211   444338    7,54%
  12570  3934      743,2772   158      837,0000      773,9211   497270    7,54%
  14179  5023      834,9967   108      837,0000      773,9211   563259    7,54%

Performing restart 2

Repeating presolve.
Tried aggregator 1 time.
Reduced MIP has 365 rows, 332 columns, and 1410 nonzeros.
Reduced MIP has 332 binaries, 0 generals, 0 SOSs, and 0 indicators.
Presolve time = 0,00 sec. (0,87 ticks)
Tried aggregator 1 time.
Reduced MIP has 365 rows, 332 columns, and 1410 nonzeros.
Reduced MIP has 332 binaries, 0 generals, 0 SOSs, and 0 indicators.
Presolve time = 0,00 sec. (1,16 ticks)
Represolve time = 0,03 sec. (24,06 ticks)
  15207     0      511,2504   327      837,0000       Cuts: 6   611020    7,54%
  15207     0      511,7210   327      837,0000       Cuts: 9   611062    7,54%
  15207     0      512,2617   327      837,0000       Cuts: 8   611106    7,54%
  15207     0      513,2847   327      837,0000       Cuts: 7   611181    7,54%
  15207     0      513,5563   327      837,0000       Cuts: 6   611230    7,54%
  15207     0      513,6605   327      837,0000   ZeroHalf: 4   611247    7,54%
  15207     0      513,7250   327      837,0000   ZeroHalf: 6   611272    7,54%
  16745   742      801,5932   115      837,0000      773,9211   655884    7,54%
Elapsed time = 4,01 sec. (3640,01 ticks, tree = 0,70 MB, solutions = 4)

Clique cuts applied:  46
Cover cuts applied:  574
Mixed integer rounding cuts applied:  64
Zero-half cuts applied:  17
Lift and project cuts applied:  2
Gomory fractional cuts applied:  45

Root node processing (before b&c):
  Real time             =    0,22 sec. (155,48 ticks)
Parallel b&c, 16 threads:
  Real time             =    4,85 sec. (4226,24 ticks)
  Sync time (average)   =    1,15 sec.
  Wait time (average)   =    0,01 sec.
                          ------------
Total (root+branch&cut) =    5,08 sec. (4381,72 ticks)
